(set-logic HORN)
(declare-datatypes ((Nat_0 0)) (((Z_0 ) (S_0 (unS_0 Nat_0)))))
(declare-fun diseqNat_0 (Nat_0 Nat_0) Bool)
(declare-fun unS_1 (Nat_0 Nat_0) Bool)
(declare-fun isZ_0 (Nat_0) Bool)
(declare-fun isS_0 (Nat_0) Bool)
(assert (forall ((x_5 Nat_0) (x_4 Nat_0))
	(=> (= x_5 (S_0 x_4))
	    (unS_1 x_4 x_5))))
(assert (isZ_0 Z_0))
(assert (forall ((x_6 Nat_0))
	(isS_0 (S_0 x_6))))
(assert (forall ((x_7 Nat_0))
	(diseqNat_0 Z_0 (S_0 x_7))))
(assert (forall ((x_8 Nat_0))
	(diseqNat_0 (S_0 x_8) Z_0)))
(assert (forall ((x_9 Nat_0) (x_10 Nat_0))
	(=> (diseqNat_0 x_9 x_10)
	    (diseqNat_0 (S_0 x_9) (S_0 x_10)))))
(declare-fun add_0 (Nat_0 Nat_0 Nat_0) Bool)
(declare-fun minus_0 (Nat_0 Nat_0 Nat_0) Bool)
(declare-fun le_0 (Nat_0 Nat_0) Bool)
(declare-fun ge_0 (Nat_0 Nat_0) Bool)
(declare-fun lt_0 (Nat_0 Nat_0) Bool)
(declare-fun gt_0 (Nat_0 Nat_0) Bool)
(declare-fun mult_0 (Nat_0 Nat_0 Nat_0) Bool)
(declare-fun div_0 (Nat_0 Nat_0 Nat_0) Bool)
(declare-fun mod_0 (Nat_0 Nat_0 Nat_0) Bool)
(assert (forall ((y_0 Nat_0))
	(add_0 y_0 Z_0 y_0)))
(assert (forall ((x_2 Nat_0) (y_0 Nat_0) (r_0 Nat_0))
	(=> (add_0 r_0 x_2 y_0)
	    (add_0 (S_0 r_0) (S_0 x_2) y_0))))
(assert (forall ((y_0 Nat_0))
	(minus_0 Z_0 Z_0 y_0)))
(assert (forall ((x_2 Nat_0) (y_0 Nat_0) (r_0 Nat_0))
	(=> (minus_0 r_0 x_2 y_0)
	    (minus_0 (S_0 r_0) (S_0 x_2) y_0))))
(assert (forall ((y_0 Nat_0))
	(le_0 Z_0 y_0)))
(assert (forall ((x_2 Nat_0) (y_0 Nat_0))
	(=> (le_0 x_2 y_0)
	    (le_0 (S_0 x_2) (S_0 y_0)))))
(assert (forall ((y_0 Nat_0))
	(ge_0 y_0 Z_0)))
(assert (forall ((x_2 Nat_0) (y_0 Nat_0))
	(=> (ge_0 x_2 y_0)
	    (ge_0 (S_0 x_2) (S_0 y_0)))))
(assert (forall ((y_0 Nat_0))
	(lt_0 Z_0 (S_0 y_0))))
(assert (forall ((x_2 Nat_0) (y_0 Nat_0))
	(=> (lt_0 x_2 y_0)
	    (lt_0 (S_0 x_2) (S_0 y_0)))))
(assert (forall ((y_0 Nat_0))
	(gt_0 (S_0 y_0) Z_0)))
(assert (forall ((x_2 Nat_0) (y_0 Nat_0))
	(=> (gt_0 x_2 y_0)
	    (gt_0 (S_0 x_2) (S_0 y_0)))))
(assert (forall ((y_0 Nat_0))
	(mult_0 Z_0 Z_0 y_0)))
(assert (forall ((x_2 Nat_0) (y_0 Nat_0) (r_0 Nat_0) (z_1 Nat_0))
	(=>	(and (mult_0 r_0 x_2 y_0)
			(add_0 z_1 r_0 y_0))
		(mult_0 z_1 (S_0 x_2) y_0))))
(assert (forall ((x_2 Nat_0) (y_0 Nat_0))
	(=> (lt_0 x_2 y_0)
	    (div_0 Z_0 x_2 y_0))))
(assert (forall ((x_2 Nat_0) (y_0 Nat_0) (r_0 Nat_0) (z_1 Nat_0))
	(=>	(and (ge_0 x_2 y_0)
			(minus_0 z_1 x_2 y_0)
			(div_0 r_0 z_1 y_0))
		(div_0 (S_0 r_0) x_2 y_0))))
(assert (forall ((x_2 Nat_0) (y_0 Nat_0))
	(=> (lt_0 x_2 y_0)
	    (mod_0 x_2 x_2 y_0))))
(assert (forall ((x_2 Nat_0) (y_0 Nat_0) (r_0 Nat_0) (z_1 Nat_0))
	(=>	(and (ge_0 x_2 y_0)
			(minus_0 z_1 x_2 y_0)
			(mod_0 r_0 z_1 y_0))
		(mod_0 r_0 x_2 y_0))))
(declare-datatypes ((Lst_0 0)) (((cons_0 (head_0 Nat_0) (tail_0 Lst_0)) (nil_0 ))))
(declare-fun diseqLst_0 (Lst_0 Lst_0) Bool)
(declare-fun head_1 (Nat_0 Lst_0) Bool)
(declare-fun tail_1 (Lst_0 Lst_0) Bool)
(declare-fun iscons_0 (Lst_0) Bool)
(declare-fun isnil_0 (Lst_0) Bool)
(assert (forall ((x_13 Lst_0) (x_11 Nat_0) (x_12 Lst_0))
	(=> (= x_13 (cons_0 x_11 x_12))
	    (head_1 x_11 x_13))))
(assert (forall ((x_13 Lst_0) (x_11 Nat_0) (x_12 Lst_0))
	(=> (= x_13 (cons_0 x_11 x_12))
	    (tail_1 x_12 x_13))))
(assert (forall ((x_15 Nat_0) (x_16 Lst_0))
	(iscons_0 (cons_0 x_15 x_16))))
(assert (isnil_0 nil_0))
(assert (forall ((x_17 Nat_0) (x_18 Lst_0))
	(diseqLst_0 (cons_0 x_17 x_18) nil_0)))
(assert (forall ((x_19 Nat_0) (x_20 Lst_0))
	(diseqLst_0 nil_0 (cons_0 x_19 x_20))))
(assert (forall ((x_21 Nat_0) (x_22 Lst_0) (x_23 Nat_0) (x_24 Lst_0))
	(=> (diseqNat_0 x_21 x_23)
	    (diseqLst_0 (cons_0 x_21 x_22) (cons_0 x_23 x_24)))))
(assert (forall ((x_21 Nat_0) (x_22 Lst_0) (x_23 Nat_0) (x_24 Lst_0))
	(=> (diseqLst_0 x_22 x_24)
	    (diseqLst_0 (cons_0 x_21 x_22) (cons_0 x_23 x_24)))))
(declare-fun interleave_0 (Lst_0 Lst_0 Lst_0) Bool)
(declare-fun evens_0 (Lst_0 Lst_0) Bool)
(declare-fun odds_0 (Lst_0 Lst_0) Bool)
(assert (evens_0 nil_0 nil_0))
(assert (odds_0 nil_0 nil_0))
(assert (forall ((xs_0 Lst_0) (ys_0 Lst_0) (x_0 Nat_0) (rs_0 Lst_0))
	(=>	(and (= xs_0 (cons_0 x_0 ys_0))
			(odds_0 ys_0 rs_0))
		(evens_0 xs_0 (cons_0 x_0 rs_0)))))
(assert (forall ((xs_1 Lst_0) (ys_1 Lst_0) (x_1 Nat_0) (rs_1 Lst_0))
	(=>	(and (= xs_1 (cons_0 x_1 ys_1))
			(evens_0 ys_1 rs_1))
		(odds_0 xs_1 rs_1))))
(assert (forall ((ys_2 Lst_0) (zs_0 Lst_0))
	(=> (= zs_0 nil_0)
	    (interleave_0 zs_0 ys_2 ys_2))))
(assert (forall ((xs_2 Lst_0) (ys_3 Lst_0) (zs_1 Lst_0) (z_0 Nat_0) (rs_2 Lst_0))
	(=>	(and (= zs_1 (cons_0 z_0 xs_2))
			(interleave_0 ys_3 xs_2 rs_2))
		(interleave_0 zs_1 ys_3 (cons_0 z_0 rs_2)))))
(assert (forall ((xs_3 Lst_0) (ys_4 Lst_0) (zs_2 Lst_0) (rs_3 Lst_0))
	(=>	(and (evens_0 xs_3 ys_4)
			(odds_0 xs_3 zs_2)
			(interleave_0 ys_4 zs_2 rs_3)
			(diseqLst_0 xs_3 rs_3))
		false)))
(check-sat)
